Number of variables: 21
Number of constraints: 140
Constraints density: 0.9455782312925171
Maximum factor: 4.7
Minimum factor: -0.000102
34.52157974243164ms cplex
35.619497299194336ms glpk
17.5631046295166ms lp_solve
35.35270690917969ms clp
-47787811.8147115 Value of objective function [cplex]
-47787811.81 Value of objective function [glpk]
-47787800.0 Value of objective function [lp_solve]
-47787812.0 Value of objective function [clp]
